NAME: ETSP
COMMENT: Generated by write_TSPLIB (R package TSP)
TYPE: TSP
DIMENSION: 3
EDGE_WEIGHT_TYPE: EUC_2D
NODE_COORD_SECTION
1 2.376321e+01 4.925903e+01
2 2.263701e+01 4.683136e+01
3 2.642024e+01 4.675027e+01
EOF
